c Complex circuit with many variables
c This represents a digital multiplexer and logic gate network
c Variables 1-4: Input signals
c Variables 5-8: Control signals
c Variables 9-12: Output and intermediate nodes
c The circuit includes AND, OR, and XOR gate equivalents
p cnf 15 32
1 2 3 0
-1 4 5 0
-2 6 7 0
-3 -4 8 0
5 -6 9 0
-5 6 -9 0
7 8 -10 0
-7 -8 -10 0
9 10 11 0
-9 -10 11 0
1 -11 12 0
-1 11 12 0
2 3 -12 0
4 -7 13 0
-4 7 -13 0
6 8 13 0
11 12 -14 0
-11 -12 14 0
13 14 15 0
-13 -14 -15 0
1 5 9 0
-2 -6 10 0
3 7 -11 0
-4 -8 12 0
5 10 -13 0
-6 -11 14 0
7 12 15 0
-8 -13 -15 0
9 -14 0
-10 15 0
1 -3 -5 7 0
-2 4 -6 8 11 0